p wcnf 98 370 11
1 -89 0
1 -90 0
1 -91 0
1 -92 0
1 -93 0
1 -94 0
1 -95 0
1 -96 0
1 -97 0
1 -98 0
11 1 2 0
11 -1 -2 0
11 3 4 0
11 -3 -4 0
11 5 6 0
11 -5 -6 0
11 -1 7 -10 0
11 -1 -7 10 0
11 -3 8 -11 0
11 -3 -8 11 0
11 -5 9 -12 0
11 -5 -9 12 0
11 -1 10 -13 0
11 -3 11 -14 0
11 -5 12 -15 0
11 -1 13 -16 0
11 -1 -13 16 0
11 -3 14 -17 0
11 -3 -14 17 0
11 -5 15 -18 0
11 -5 -15 18 0
11 -1 16 -19 0
11 -3 17 -20 0
11 -5 18 -21 0
11 -1 19 -22 0
11 -1 -19 22 0
11 -3 20 -23 0
11 -3 -20 23 0
11 -5 21 -24 0
11 -5 -21 24 0
11 -2 7 -10 0
11 -4 8 -11 0
11 -6 9 -12 0
11 -2 10 -19 0
11 -4 11 -20 0
11 -6 12 -21 0
11 -2 19 -22 0
11 -4 20 -23 0
11 -6 21 -24 0
11 -2 22 -13 0
11 -4 23 -14 0
11 -6 24 -15 0
11 -2 13 -16 0
11 -4 14 -17 0
11 -6 15 -18 0
11 -25 8 7 0
11 -29 11 10 0
11 -33 14 13 0
11 -37 17 16 0
11 -41 20 19 0
11 -45 23 22 0
11 -26 7 0
11 -26 -8 0
11 -30 10 0
11 -30 -11 0
11 -34 13 0
11 -34 -14 0
11 -38 16 0
11 -38 -17 0
11 -42 19 0
11 -42 -20 0
11 -46 22 0
11 -46 -23 0
11 -27 9 0
11 -27 -7 0
11 -31 12 0
11 -31 -10 0
11 -35 15 0
11 -35 -13 0
11 -39 18 0
11 -39 -16 0
11 -43 21 0
11 -43 -19 0
11 -47 24 0
11 -47 -22 0
11 -28 -9 -7 0
11 -32 -12 -10 0
11 -36 -15 -13 0
11 -40 -18 -16 0
11 -44 -21 -19 0
11 -48 -24 -22 0
11 25 -8 -7 0
11 26 -7 8 0
11 27 -9 7 0
11 28 9 7 0
11 29 -11 -10 0
11 30 -10 11 0
11 31 -12 10 0
11 32 12 10 0
11 33 -14 -13 0
11 34 -13 14 0
11 35 -15 13 0
11 36 15 13 0
11 37 -17 -16 0
11 38 -16 17 0
11 39 -18 16 0
11 40 18 16 0
11 41 -20 -19 0
11 42 -19 20 0
11 43 -21 19 0
11 44 21 19 0
11 45 -23 -22 0
11 46 -22 23 0
11 47 -24 22 0
11 48 24 22 0
11 -1 7 0
11 -1 -22 0
11 -2 7 0
11 -2 -16 0
11 -3 8 0
11 -3 -23 0
11 -4 8 0
11 -4 -17 0
11 -5 9 0
11 -5 -24 0
11 -6 9 0
11 -6 -18 0
11 49 -50 0
11 50 -51 0
11 53 -54 0
11 54 -55 0
11 57 -58 0
11 58 -59 0
11 61 -62 0
11 62 -63 0
11 -25 -49 65 0
11 -25 -50 66 0
11 -25 -51 67 0
11 -29 -49 69 0
11 -29 -50 70 0
11 -29 -51 71 0
11 -33 -49 73 0
11 -33 -50 74 0
11 -33 -51 75 0
11 -37 -49 77 0
11 -37 -50 78 0
11 -37 -51 79 0
11 -41 -49 81 0
11 -41 -50 82 0
11 -41 -51 83 0
11 -45 -49 85 0
11 -45 -50 86 0
11 -45 -51 87 0
11 -26 -53 65 0
11 -26 -54 66 0
11 -26 -55 67 0
11 -30 -53 69 0
11 -30 -54 70 0
11 -30 -55 71 0
11 -34 -53 73 0
11 -34 -54 74 0
11 -34 -55 75 0
11 -38 -53 77 0
11 -38 -54 78 0
11 -38 -55 79 0
11 -42 -53 81 0
11 -42 -54 82 0
11 -42 -55 83 0
11 -46 -53 85 0
11 -46 -54 86 0
11 -46 -55 87 0
11 -27 -57 65 0
11 -27 -58 66 0
11 -27 -59 67 0
11 -31 -57 69 0
11 -31 -58 70 0
11 -31 -59 71 0
11 -35 -57 73 0
11 -35 -58 74 0
11 -35 -59 75 0
11 -39 -57 77 0
11 -39 -58 78 0
11 -39 -59 79 0
11 -43 -57 81 0
11 -43 -58 82 0
11 -43 -59 83 0
11 -47 -57 85 0
11 -47 -58 86 0
11 -47 -59 87 0
11 -28 -61 65 0
11 -28 -62 66 0
11 -28 -63 67 0
11 -32 -61 69 0
11 -32 -62 70 0
11 -32 -63 71 0
11 -36 -61 73 0
11 -36 -62 74 0
11 -36 -63 75 0
11 -40 -61 77 0
11 -40 -62 78 0
11 -40 -63 79 0
11 -44 -61 81 0
11 -44 -62 82 0
11 -44 -63 83 0
11 -48 -61 85 0
11 -48 -62 86 0
11 -48 -63 87 0
11 -25 49 -65 0
11 -25 50 -66 0
11 -25 51 -67 0
11 -29 49 -69 0
11 -29 50 -70 0
11 -29 51 -71 0
11 -33 49 -73 0
11 -33 50 -74 0
11 -33 51 -75 0
11 -37 49 -77 0
11 -37 50 -78 0
11 -37 51 -79 0
11 -41 49 -81 0
11 -41 50 -82 0
11 -41 51 -83 0
11 -45 49 -85 0
11 -45 50 -86 0
11 -45 51 -87 0
11 -26 53 -65 0
11 -26 54 -66 0
11 -26 55 -67 0
11 -30 53 -69 0
11 -30 54 -70 0
11 -30 55 -71 0
11 -34 53 -73 0
11 -34 54 -74 0
11 -34 55 -75 0
11 -38 53 -77 0
11 -38 54 -78 0
11 -38 55 -79 0
11 -42 53 -81 0
11 -42 54 -82 0
11 -42 55 -83 0
11 -46 53 -85 0
11 -46 54 -86 0
11 -46 55 -87 0
11 -27 57 -65 0
11 -27 58 -66 0
11 -27 59 -67 0
11 -31 57 -69 0
11 -31 58 -70 0
11 -31 59 -71 0
11 -35 57 -73 0
11 -35 58 -74 0
11 -35 59 -75 0
11 -39 57 -77 0
11 -39 58 -78 0
11 -39 59 -79 0
11 -43 57 -81 0
11 -43 58 -82 0
11 -43 59 -83 0
11 -47 57 -85 0
11 -47 58 -86 0
11 -47 59 -87 0
11 -28 61 -65 0
11 -28 62 -66 0
11 -28 63 -67 0
11 -32 61 -69 0
11 -32 62 -70 0
11 -32 63 -71 0
11 -36 61 -73 0
11 -36 62 -74 0
11 -36 63 -75 0
11 -40 61 -77 0
11 -40 62 -78 0
11 -40 63 -79 0
11 -44 61 -81 0
11 -44 62 -82 0
11 -44 63 -83 0
11 -48 61 -85 0
11 -48 62 -86 0
11 -48 63 -87 0
11 65 0
11 70 0
11 75 0
11 -70 65 0
11 -71 66 0
11 -74 65 69 0
11 -75 66 70 0
11 -78 65 69 73 0
11 -79 66 70 74 0
11 -82 65 69 73 77 0
11 -83 66 70 74 78 0
11 -86 65 69 73 77 81 0
11 -87 66 70 74 78 82 0
11 67 71 75 79 83 87 0
11 73 77 0
11 77 69 0
11 -75 -79 0
11 -79 -71 0
11 -73 -77 74 78 0
11 -74 -78 75 79 0
11 -77 -69 78 70 0
11 -78 -70 79 71 0
11 89 65 69 0
11 89 73 77 0
11 89 81 85 0
11 90 69 73 0
11 91 73 85 0
11 92 73 81 0
11 92 77 85 0
11 93 65 73 0
11 93 69 77 0
11 94 77 81 0
11 95 65 77 0
11 96 69 81 0
11 97 65 81 0
11 97 69 85 0
11 98 65 85 0
11 89 -67 -71 0
11 89 -75 -79 0
11 89 -83 -87 0
11 90 -71 -75 0
11 91 -75 -87 0
11 92 -75 -83 0
11 92 -79 -87 0
11 93 -67 -75 0
11 93 -71 -79 0
11 94 -79 -83 0
11 95 -67 -79 0
11 96 -71 -83 0
11 97 -67 -83 0
11 97 -71 -87 0
11 98 -67 -87 0
11 89 -65 -69 66 70 0
11 89 -66 -70 67 71 0
11 89 -73 -77 74 78 0
11 89 -74 -78 75 79 0
11 89 -81 -85 82 86 0
11 89 -82 -86 83 87 0
11 90 -69 -73 70 74 0
11 90 -70 -74 71 75 0
11 91 -73 -85 74 86 0
11 91 -74 -86 75 87 0
11 92 -73 -81 74 82 0
11 92 -74 -82 75 83 0
11 92 -77 -85 78 86 0
11 92 -78 -86 79 87 0
11 93 -65 -73 66 74 0
11 93 -66 -74 67 75 0
11 93 -69 -77 70 78 0
11 93 -70 -78 71 79 0
11 94 -77 -81 78 82 0
11 94 -78 -82 79 83 0
11 95 -65 -77 66 78 0
11 95 -66 -78 67 79 0
11 96 -69 -81 70 82 0
11 96 -70 -82 71 83 0
11 97 -65 -81 66 82 0
11 97 -66 -82 67 83 0
11 97 -69 -85 70 86 0
11 97 -70 -86 71 87 0
11 98 -65 -85 66 86 0
11 98 -66 -86 67 87 0
11 -90 89 0
11 -91 90 0
11 -92 91 0
11 -93 92 0
11 -94 93 0
11 -95 94 0
11 -96 95 0
11 -97 96 0
11 -98 97 0
